Translating instance to solver...

Set parameter TimeLimit to value 28800
Gurobi Optimizer version 11.0.2 build v11.0.2rc0 (linux64 - "Ubuntu 22.04.4 LTS")

CPU model: Intel(R) Xeon(R) Gold 5120 CPU @ 2.20GHz, instruction set [SSE2|AVX|AVX2|AVX512]
Thread count: 28 physical cores, 56 logical processors, using up to 28 threads

Academic license 2463511 - for non-commercial use only - registered to lu___@cefet-rj.br
Optimize a model with 113275 rows, 53993 columns and 256388 nonzeros
Model fingerprint: 0x8cc001ae
Variable types: 1 continuous, 53992 integer (53920 binary)
Coefficient statistics:
  Matrix range     [1e+00, 1e+05]
  Objective range  [3e-01, 8e-01]
  Bounds range     [1e+00, 7e+01]
  RHS range        [1e+00, 7e+01]
Presolve removed 92572 rows and 45510 columns
Presolve time: 1.84s
Presolved: 20703 rows, 8483 columns, 59951 nonzeros
Variable types: 0 continuous, 8483 integer (8412 binary)
Found heuristic solution: objective 38.5123700

Root relaxation: objective 1.223564e+00, 1318 iterations, 0.08 seconds (0.11 work units)

    Nodes    |    Current Node    |     Objective Bounds      |     Work
 Expl Unexpl |  Obj  Depth IntInf | Incumbent    BestBd   Gap | It/Node Time

     0     0    1.22356    0   20   38.51237    1.22356  96.8%     -    2s
H    0     0                       1.6735640    1.22356  26.9%     -    2s
H    0     0                       1.2235640    1.22356  0.00%     -    3s
     0     0    1.22356    0   20    1.22356    1.22356  0.00%     -    3s

Explored 1 nodes (8434 simplex iterations) in 3.10 seconds (2.80 work units)
Thread count was 28 (of 56 available processors)

Solution count 3: 1.22356 1.67356 38.5124 

Optimal solution found (tolerance 1.00e-04)
Best objective 1.223564000000e+00, best bound 1.223564000000e+00, gap 0.0000%

Solver Wallclock Time (for this epsilon): 3.1002681255340576 s
Python wallclock Time (for this epsilon): 11.657250881195068 s


Total Elapsed Time (since program call): 699.0919995307922 s

Results:

I = 1.223564 mA
C = 20.0 points
C ~= 8.0 km^2

Minimum Epsilon for this instance = 10
Maximum Epsilon for this instance = 100

Current Epsilon = 20


Preprocessing Time (for this epsilon): 0.011875629425048828 s


Updated solution vectors:
sol_I = [-1.223564,-1.223564]
sol_C = [24.0,20.0]
sol_eps = [10,20]
sol_gap = [0.0,0.0]
